(declare-fun bvlambda_23_ () (_ BitVec 1))
(declare-fun a106 () (Array (_ BitVec 1) (_ BitVec 7)))
(assert
(let (($e22 (_ bv0  7)))
(let (($e162 (store a106 (not false) $e22 )))
(let (($e164 (select $e162 (not   bvlambda_23_))))
             (   extract      $e164)
                                                                                                                                                                                                                                                                                                                                                                                                                                                                                                                                                                                                                                                                                                                                                                                                                                                                                                                                                                                                                                                                                                                                                                                                                                                                                                                                                                                                                                                                                                                                                                                                                                                                                                                                                                                                                                                                                                                                                                                                                                                                                                                                                                                                                                                                                                                                                                                                                                                                                                                                                                                                                                                                                                                                                                                                                                                                                                                                                                                                                                                             ) )                                                                                                    )                     )
